100 223
67 275 2
93 273 2
115 236 1
169 335 1
100 298 1
93 113 2
166 251 1
90 218 1
127 258 1
113 228 2
111 228 2
114 225 1
77 135 1
52 77 1
87 224 4
129 285 1
153 287 1
153 202 1
112 283 2
73 402 2
108 180 3
146 342 1
120 269 1
104 340 2
137 292 2
98 302 1
97 302 1
185 332 1
184 332 2
140 174 2
140 332 2
100 126 2
133 326 6
137 326 1
190 333 4
174 326 2
170 326 1
87 328 1
154 326 1
153 326 1
140 311 2
120 328 1
124 311 2
138 326 4
176 240 2
112 326 1
156 345 1
94 199 2
148 180 2
136 366 1
126 199 2
126 157 6
136 233 4
136 166 6
184 191 2
67 142 16
183 326 2
93 142 2
79 306 2
219 232 2
219 233 2
126 224 2
165 316 2
160 316 2
83 102 2
156 301 2
137 329 2
138 329 2
157 328 2
157 371 2
90 145 2
124 335 2
165 335 2
153 186 2
173 333 1
140 321 1
57 278 2
63 87 3
64 137 1
98 186 1
63 117 1
80 329 1
63 185 1
71 185 2
65 200 2
86 180 6
94 279 6
80 276 2
56 175 2
80 262 2
77 242 2
77 77 2
96 292 4
62 398 4
70 261 2
79 259 4
108 216 2
65 328 4
61 287 6
64 286 2
500 1000 
500 1000 
500 1000 
500 1000 
500 1000 
500 1000 
500 1000 
500 1000 
500 1000 
500 1000 
500 1000 
500 1000 
500 1000 
500 1000 
500 1000 
500 1000 
500 1000 
500 1000 
500 1000 
500 1000 
500 1000 
500 1000 
500 1000 
500 1000 
500 1000 
500 1000 
500 1000 
500 1000 
500 1000 
500 1000 
500 1000 
500 1000 
500 1000 
500 1000 
500 1000 
500 1000 
500 1000 
500 1000 
500 1000 
500 1000 
500 1000 
500 1000 
500 1000 
500 1000 
500 1000 
500 1000 
500 1000 
500 1000 
500 1000 
500 1000 
500 1000 
500 1000 
500 1000 
500 1000 
500 1000 
500 1000 
500 1000 
500 1000 
500 1000 
500 1000 
500 1000 
500 1000 
500 1000 
500 1000 
500 1000 
500 1000 
500 1000 
500 1000 
500 1000 
500 1000 
500 1000 
500 1000 
500 1000 
500 1000 
500 1000 
500 1000 
500 1000 
500 1000 
500 1000 
500 1000 
500 1000 
500 1000 
500 1000 
500 1000 
500 1000 
500 1000 
500 1000 
500 1000 
500 1000 
500 1000 
500 1000 
500 1000 
500 1000 
500 1000 
500 1000 
500 1000 
500 1000 
500 1000 
500 1000 
500 1000 
500 1000 
500 1000 
500 1000 
500 1000 
500 1000 
500 1000 
500 1000 
500 1000 
500 1000 
500 1000 
500 1000 
500 1000 
500 1000 
500 1000 
500 1000 
500 1000 
500 1000 
500 1000 
500 1000 
500 1000 
500 1000 
500 1000 
500 1000 
500 1000 
500 1000 
500 1000 
500 1000 
500 1000 
500 1000 
500 1000 
500 1000 
500 1000 
500 1000 
500 1000 
500 1000 
500 1000 
500 1000 
500 1000 
500 1000 
500 1000 
500 1000 
500 1000 
500 1000 
500 1000 
500 1000 
500 1000 
500 1000 
500 1000 
500 1000 
500 1000 
500 1000 
500 1000 
500 1000 
500 1000 
500 1000 
500 1000 
500 1000 
500 1000 
500 1000 
500 1000 
500 1000 
500 1000 
500 1000 
500 1000 
500 1000 
500 1000 
500 1000 
500 1000 
500 1000 
500 1000 
500 1000 
500 1000 
500 1000 
500 1000 
500 1000 
500 1000 
500 1000 
500 1000 
500 1000 
500 1000 
500 1000 
500 1000 
500 1000 
500 1000 
500 1000 
500 1000 
500 1000 
500 1000 
500 1000 
500 1000 
500 1000 
500 1000 
500 1000 
500 1000 
500 1000 
500 1000 
500 1000 
500 1000 
500 1000 
500 1000 
500 1000 
500 1000 
500 1000 
500 1000 
500 1000 
500 1000 
500 1000 
500 1000 
500 1000 
500 1000 
500 1000 
500 1000 
500 1000 
500 1000 
500 1000 
500 1000 
500 1000 
500 1000 
500 1000 
500 1000 
500 1000 
500 1000 
500 1000 
